************************************************************************
file with basedata            : mm6_.bas
initial value random generator: 1329841971
************************************************************************
projects                      :  1
jobs (incl. supersource/sink ):  12
horizon                       :  70
RESOURCES
  - renewable                 :  2   R
  - nonrenewable              :  2   N
  - doubly constrained        :  0   D
************************************************************************
PROJECT INFORMATION:
pronr.  #jobs rel.date duedate tardcost  MPM-Time
    1     10      0       14        9       14
************************************************************************
PRECEDENCE RELATIONS:
jobnr.    #modes  #successors   successors
   0        1          3           1   2   3
   1        3          2           6   9
   2        3          1          10
   3        3          3           4   6   9
   4        3          2           5   8
   5        3          1           7
   6        3          2           7   8
   7        3          1          10
   8        3          1          11
   9        3          1          11
  10        3          1          11
  11        1          0        
************************************************************************
REQUESTS/DURATIONS:
jobnr. mode duration  R 1  R 2  R 3  R 4  E(W 1)  E(W 2)
------------------------------------------------------------------------
  0      1     0       0    0    0    0     0       0
  1      1     1       0    4    8   10     4      18
  2      1     1       7    0    8    7     7      15
  3      1     2       6    0    8    9    12      34
  4      1     2       0    4   10    8     8      36
  5      1     1       8    0    8    7     8      15
  6      1     2       0    6    4    5    12      18
  7      1     4       0    3    3    8    12      44
  8      1     1       0    8    5    6     8      11
  9      1     3       0    4    9    6    12      45
 10      1     5       5    0    4    5    25      45
 11      1     0       0    0    0    0     0       0
************************************************************************
RESOURCEAVAILABILITIES:
  R 1  R 2
   12   117
************************************************************************
RESOURCE LIMITS:
jobnr.  l(R 1)  u(R 1)  l(R 2)  u(R 2)
------------------------------------------------------------------------
  0        0       0       0       0
  1        2       4       9      18
  2        4       7       8      15
  3        3       6       9      17
  4        2       4       9      18
  5        4       8       8      15
  6        3       6       5       9
  7        2       3       6      11
  8        4       8       6      11
  9        2       4       8      15
 10        3       5       5       9
 11        0       0       0       0
************************************************************************
SCENARIOS:
------------------------------------------------------------------------
RESOURCE k = 1
s = 1: (0, 5, 6, 10, 11, 7, 11, 10, 10, 10, 23, 0)
s = 2: (0, 3, 7, 9, 6, 5, 17, 21, 11, 13, 40, 0)
s = 3: (0, 3, 6, 13, 10, 10, 16, 18, 7, 7, 43, 0)
s = 4: (0, 3, 7, 10, 7, 8, 15, 14, 15, 11, 16, 0)
s = 5: (0, 8, 7, 19, 7, 8, 14, 16, 7, 10, 14, 0)
s = 6: (0, 6, 6, 11, 9, 8, 11, 14, 5, 10, 27, 0)
s = 7: (0, 6, 5, 12, 5, 13, 16, 21, 14, 11, 23, 0)
s = 8: (0, 5, 6, 7, 8, 6, 10, 8, 8, 15, 20, 0)
s = 9: (0, 6, 12, 14, 15, 10, 12, 14, 5, 10, 31, 0)
s = 10: (0, 5, 12, 14, 6, 6, 10, 17, 12, 8, 30, 0)
s = 11: (0, 3, 5, 11, 8, 6, 8, 9, 8, 15, 19, 0)
s = 12: (0, 5, 7, 11, 6, 12, 12, 10, 8, 15, 22, 0)
s = 13: (0, 4, 5, 12, 5, 13, 22, 13, 7, 16, 34, 0)
s = 14: (0, 3, 5, 8, 9, 9, 8, 11, 5, 11, 25, 0)
s = 15: (0, 5, 6, 21, 8, 12, 9, 9, 6, 13, 17, 0)
s = 16: (0, 5, 6, 11, 6, 6, 20, 21, 6, 17, 30, 0)
s = 17: (0, 3, 12, 12, 9, 6, 11, 10, 8, 13, 19, 0)
s = 18: (0, 4, 10, 20, 9, 6, 8, 10, 10, 18, 27, 0)
s = 19: (0, 4, 10, 12, 7, 8, 11, 12, 5, 9, 25, 0)
s = 20: (0, 4, 5, 13, 5, 12, 10, 9, 8, 13, 28, 0)
s = 21: (0, 5, 9, 17, 10, 11, 22, 18, 13, 10, 22, 0)
s = 22: (0, 5, 6, 9, 10, 7, 16, 13, 7, 13, 19, 0)
s = 23: (0, 6, 6, 9, 6, 9, 18, 13, 12, 8, 22, 0)
s = 24: (0, 4, 7, 9, 5, 6, 8, 12, 8, 13, 30, 0)
s = 25: (0, 7, 7, 14, 7, 5, 13, 14, 13, 7, 21, 0)
s = 26: (0, 3, 8, 16, 9, 13, 13, 21, 6, 11, 16, 0)
s = 27: (0, 3, 10, 16, 12, 7, 9, 12, 10, 7, 21, 0)
s = 28: (0, 5, 8, 8, 6, 10, 10, 12, 5, 14, 22, 0)
s = 29: (0, 5, 6, 16, 10, 7, 8, 15, 6, 16, 33, 0)
s = 30: (0, 3, 10, 12, 9, 10, 11, 14, 11, 15, 30, 0)
s = 31: (0, 5, 9, 18, 10, 6, 15, 22, 11, 11, 32, 0)
s = 32: (0, 4, 7, 15, 12, 9, 8, 14, 6, 12, 24, 0)
s = 33: (0, 6, 8, 15, 7, 7, 11, 8, 8, 18, 23, 0)
s = 34: (0, 6, 6, 16, 15, 7, 10, 16, 10, 13, 20, 0)
s = 35: (0, 4, 6, 10, 11, 15, 10, 13, 9, 14, 25, 0)
s = 36: (0, 8, 12, 14, 11, 12, 9, 17, 9, 22, 25, 0)
s = 37: (0, 5, 7, 7, 11, 6, 12, 10, 7, 14, 22, 0)
s = 38: (0, 3, 7, 16, 7, 6, 7, 16, 6, 11, 18, 0)
s = 39: (0, 4, 8, 12, 8, 6, 16, 14, 6, 14, 28, 0)
s = 40: (0, 5, 8, 15, 8, 11, 16, 14, 9, 12, 20, 0)
s = 41: (0, 7, 14, 8, 5, 8, 15, 20, 8, 11, 14, 0)
s = 42: (0, 4, 6, 12, 10, 9, 9, 7, 9, 8, 21, 0)
s = 43: (0, 3, 7, 12, 6, 9, 16, 15, 10, 10, 22, 0)
s = 44: (0, 3, 6, 7, 8, 13, 12, 8, 8, 13, 34, 0)
s = 45: (0, 4, 7, 11, 6, 6, 13, 10, 10, 10, 28, 0)
s = 46: (0, 5, 10, 12, 9, 11, 11, 9, 8, 17, 22, 0)
s = 47: (0, 6, 8, 14, 10, 8, 16, 12, 9, 12, 24, 0)
s = 48: (0, 5, 7, 16, 10, 9, 12, 18, 10, 15, 16, 0)
s = 49: (0, 4, 8, 21, 7, 7, 14, 9, 6, 17, 18, 0)
s = 50: (0, 5, 5, 13, 9, 6, 11, 10, 6, 11, 19, 0)
s = 51: (0, 3, 10, 15, 6, 5, 15, 12, 7, 17, 23, 0)
s = 52: (0, 6, 9, 13, 9, 10, 11, 10, 10, 10, 43, 0)
s = 53: (0, 3, 4, 12, 8, 7, 16, 20, 10, 16, 17, 0)
s = 54: (0, 4, 6, 14, 12, 11, 8, 18, 8, 12, 38, 0)
s = 55: (0, 5, 10, 9, 11, 9, 12, 14, 13, 9, 29, 0)
s = 56: (0, 3, 10, 13, 6, 6, 12, 17, 7, 9, 39, 0)
s = 57: (0, 3, 7, 9, 6, 6, 10, 14, 7, 15, 26, 0)
s = 58: (0, 6, 8, 9, 8, 7, 11, 13, 7, 12, 21, 0)
s = 59: (0, 3, 6, 16, 8, 15, 19, 9, 10, 17, 22, 0)
s = 60: (0, 7, 6, 11, 9, 7, 13, 18, 9, 9, 39, 0)
s = 61: (0, 4, 10, 10, 10, 9, 10, 9, 8, 13, 28, 0)
s = 62: (0, 3, 11, 9, 10, 8, 10, 9, 9, 14, 22, 0)
s = 63: (0, 4, 9, 20, 10, 10, 15, 10, 11, 16, 25, 0)
s = 64: (0, 4, 8, 14, 8, 8, 8, 13, 11, 15, 18, 0)
s = 65: (0, 5, 4, 16, 5, 5, 13, 12, 9, 15, 36, 0)
s = 66: (0, 6, 5, 19, 5, 9, 8, 17, 6, 9, 25, 0)
s = 67: (0, 3, 8, 11, 8, 8, 16, 14, 7, 12, 31, 0)
s = 68: (0, 7, 7, 15, 6, 10, 10, 12, 6, 13, 21, 0)
s = 69: (0, 6, 6, 12, 8, 8, 14, 10, 7, 18, 20, 0)
s = 70: (0, 4, 12, 12, 5, 6, 11, 11, 7, 18, 18, 0)
s = 71: (0, 5, 7, 8, 7, 8, 8, 15, 6, 11, 28, 0)
s = 72: (0, 4, 8, 17, 10, 7, 7, 14, 10, 13, 40, 0)
s = 73: (0, 5, 11, 13, 7, 12, 17, 11, 8, 15, 33, 0)
s = 74: (0, 5, 8, 14, 7, 6, 14, 23, 7, 11, 21, 0)
s = 75: (0, 4, 6, 20, 7, 5, 8, 10, 12, 13, 31, 0)
s = 76: (0, 6, 6, 13, 11, 6, 15, 13, 11, 14, 36, 0)
s = 77: (0, 4, 8, 10, 8, 10, 12, 14, 8, 9, 34, 0)
s = 78: (0, 4, 7, 10, 10, 9, 15, 7, 10, 15, 19, 0)
s = 79: (0, 3, 11, 17, 12, 8, 13, 10, 7, 14, 20, 0)
s = 80: (0, 3, 5, 19, 8, 11, 8, 9, 11, 20, 25, 0)
s = 81: (0, 4, 7, 12, 12, 5, 13, 12, 11, 11, 30, 0)
s = 82: (0, 3, 9, 10, 6, 13, 10, 8, 12, 16, 22, 0)
s = 83: (0, 6, 8, 19, 5, 5, 9, 14, 11, 11, 26, 0)
s = 84: (0, 3, 6, 14, 10, 10, 13, 11, 10, 18, 21, 0)
s = 85: (0, 3, 10, 15, 11, 9, 14, 22, 11, 12, 28, 0)
s = 86: (0, 7, 7, 11, 5, 9, 10, 8, 9, 9, 23, 0)
s = 87: (0, 4, 4, 10, 8, 9, 13, 13, 10, 11, 27, 0)
s = 88: (0, 6, 5, 12, 9, 13, 16, 9, 7, 11, 46, 0)
s = 89: (0, 5, 5, 10, 10, 6, 8, 21, 11, 15, 21, 0)
s = 90: (0, 5, 6, 9, 9, 10, 14, 17, 12, 14, 19, 0)
s = 91: (0, 3, 6, 14, 10, 8, 12, 9, 6, 12, 42, 0)
s = 92: (0, 6, 13, 11, 8, 10, 18, 13, 6, 14, 21, 0)
s = 93: (0, 4, 7, 13, 7, 6, 11, 16, 9, 14, 28, 0)
s = 94: (0, 5, 5, 11, 6, 8, 18, 20, 6, 10, 32, 0)
s = 95: (0, 5, 10, 18, 10, 8, 14, 14, 12, 13, 28, 0)
s = 96: (0, 5, 10, 17, 6, 6, 20, 12, 6, 15, 25, 0)
s = 97: (0, 5, 8, 16, 7, 5, 11, 14, 8, 8, 24, 0)
s = 98: (0, 5, 9, 19, 6, 10, 17, 10, 7, 12, 24, 0)
s = 99: (0, 5, 7, 9, 10, 8, 8, 9, 11, 21, 39, 0)
s = 100: (0, 3, 9, 13, 11, 6, 8, 12, 6, 22, 30, 0)
s = 101: (0, 4, 8, 13, 11, 5, 15, 9, 6, 12, 22, 0)
s = 102: (0, 7, 5, 11, 13, 8, 13, 18, 5, 8, 24, 0)
s = 103: (0, 3, 6, 14, 13, 9, 8, 14, 10, 15, 26, 0)
s = 104: (0, 5, 8, 11, 12, 9, 12, 8, 11, 13, 19, 0)
s = 105: (0, 4, 7, 12, 11, 6, 8, 9, 6, 14, 23, 0)
s = 106: (0, 6, 11, 12, 7, 7, 13, 7, 10, 12, 25, 0)
s = 107: (0, 4, 6, 18, 12, 7, 10, 18, 8, 17, 26, 0)
s = 108: (0, 5, 9, 14, 13, 8, 11, 7, 8, 14, 19, 0)
s = 109: (0, 6, 12, 23, 9, 9, 12, 16, 9, 17, 20, 0)
s = 110: (0, 3, 9, 13, 13, 13, 13, 9, 10, 15, 22, 0)
s = 111: (0, 6, 7, 16, 9, 9, 15, 10, 7, 13, 19, 0)
s = 112: (0, 6, 9, 16, 7, 5, 14, 17, 5, 10, 34, 0)
s = 113: (0, 6, 7, 11, 9, 12, 14, 14, 7, 12, 21, 0)
s = 114: (0, 3, 7, 7, 7, 8, 10, 17, 7, 10, 16, 0)
s = 115: (0, 6, 8, 9, 6, 10, 10, 13, 9, 11, 35, 0)
s = 116: (0, 5, 6, 14, 10, 6, 12, 13, 6, 10, 20, 0)
s = 117: (0, 3, 13, 12, 13, 5, 15, 11, 7, 19, 19, 0)
s = 118: (0, 5, 9, 7, 7, 6, 7, 8, 6, 10, 29, 0)
s = 119: (0, 4, 8, 10, 9, 11, 10, 16, 7, 7, 19, 0)
s = 120: (0, 4, 10, 7, 10, 8, 12, 18, 10, 12, 24, 0)
s = 121: (0, 3, 6, 13, 12, 9, 11, 17, 14, 15, 34, 0)
s = 122: (0, 3, 5, 9, 15, 7, 16, 8, 10, 11, 28, 0)
s = 123: (0, 6, 10, 8, 12, 6, 8, 11, 8, 19, 21, 0)
s = 124: (0, 4, 7, 8, 10, 10, 10, 11, 13, 13, 31, 0)
s = 125: (0, 3, 6, 10, 11, 13, 7, 14, 12, 14, 20, 0)
s = 126: (0, 3, 5, 10, 7, 5, 12, 10, 7, 15, 26, 0)
s = 127: (0, 3, 8, 15, 8, 7, 7, 15, 9, 17, 25, 0)
s = 128: (0, 3, 7, 15, 8, 13, 12, 11, 6, 15, 28, 0)
s = 129: (0, 5, 5, 16, 11, 11, 12, 16, 8, 17, 36, 0)
s = 130: (0, 4, 9, 14, 6, 11, 17, 16, 7, 14, 27, 0)
s = 131: (0, 4, 13, 16, 10, 8, 10, 16, 6, 9, 23, 0)
s = 132: (0, 4, 6, 9, 11, 9, 13, 18, 8, 8, 28, 0)
s = 133: (0, 6, 7, 9, 9, 11, 18, 14, 7, 9, 20, 0)
s = 134: (0, 6, 9, 11, 11, 7, 9, 13, 9, 9, 36, 0)
s = 135: (0, 3, 12, 17, 12, 7, 9, 9, 9, 12, 22, 0)
s = 136: (0, 4, 11, 17, 8, 8, 15, 12, 9, 10, 17, 0)
s = 137: (0, 5, 7, 10, 6, 7, 10, 11, 8, 14, 15, 0)
s = 138: (0, 5, 12, 15, 7, 6, 8, 23, 10, 16, 29, 0)
s = 139: (0, 5, 8, 13, 5, 12, 11, 12, 13, 12, 19, 0)
s = 140: (0, 6, 5, 8, 8, 11, 21, 13, 10, 16, 24, 0)
s = 141: (0, 6, 8, 12, 7, 10, 13, 12, 6, 10, 18, 0)
s = 142: (0, 6, 5, 13, 13, 12, 15, 15, 8, 19, 39, 0)
s = 143: (0, 6, 6, 12, 10, 5, 10, 14, 6, 11, 28, 0)
s = 144: (0, 4, 6, 16, 7, 12, 12, 9, 10, 11, 31, 0)
s = 145: (0, 4, 9, 11, 9, 8, 16, 13, 9, 12, 42, 0)
s = 146: (0, 3, 6, 7, 10, 6, 9, 10, 9, 23, 31, 0)
s = 147: (0, 3, 5, 9, 6, 9, 16, 9, 10, 15, 17, 0)
s = 148: (0, 6, 8, 18, 6, 9, 9, 8, 10, 11, 25, 0)
s = 149: (0, 4, 5, 15, 7, 6, 13, 11, 10, 16, 34, 0)
s = 150: (0, 5, 6, 8, 8, 12, 14, 10, 5, 17, 19, 0)
s = 151: (0, 3, 7, 13, 11, 6, 14, 9, 9, 8, 20, 0)
s = 152: (0, 5, 7, 13, 11, 9, 8, 17, 11, 11, 26, 0)
s = 153: (0, 3, 8, 19, 10, 11, 15, 10, 7, 12, 34, 0)
s = 154: (0, 5, 6, 9, 8, 7, 8, 11, 5, 15, 27, 0)
s = 155: (0, 5, 7, 8, 7, 10, 12, 13, 11, 9, 30, 0)
s = 156: (0, 5, 6, 13, 7, 6, 12, 11, 5, 16, 36, 0)
s = 157: (0, 6, 7, 11, 6, 6, 17, 12, 11, 9, 31, 0)
s = 158: (0, 4, 7, 17, 10, 11, 15, 16, 11, 7, 18, 0)
s = 159: (0, 4, 8, 12, 6, 12, 13, 15, 12, 11, 23, 0)
s = 160: (0, 7, 7, 10, 10, 8, 12, 11, 8, 9, 20, 0)
s = 161: (0, 5, 11, 11, 12, 10, 11, 16, 7, 11, 31, 0)
s = 162: (0, 4, 6, 12, 5, 9, 9, 8, 8, 12, 17, 0)
s = 163: (0, 4, 5, 8, 8, 10, 16, 11, 6, 11, 19, 0)
s = 164: (0, 4, 5, 13, 5, 9, 11, 12, 10, 12, 31, 0)
s = 165: (0, 5, 5, 13, 7, 10, 11, 13, 6, 10, 32, 0)
s = 166: (0, 4, 5, 10, 10, 6, 17, 15, 5, 10, 25, 0)
s = 167: (0, 6, 6, 9, 14, 5, 17, 12, 6, 13, 24, 0)
s = 168: (0, 3, 6, 14, 6, 12, 15, 10, 8, 14, 29, 0)
s = 169: (0, 5, 6, 9, 9, 10, 15, 13, 7, 9, 23, 0)
s = 170: (0, 5, 5, 18, 8, 6, 13, 7, 7, 8, 20, 0)
s = 171: (0, 4, 7, 9, 12, 7, 12, 15, 6, 15, 26, 0)
s = 172: (0, 6, 7, 10, 8, 8, 12, 7, 7, 14, 21, 0)
s = 173: (0, 5, 8, 17, 5, 8, 8, 17, 6, 15, 25, 0)
s = 174: (0, 3, 10, 7, 8, 8, 9, 13, 10, 14, 23, 0)
s = 175: (0, 5, 10, 9, 9, 5, 12, 16, 7, 11, 13, 0)
s = 176: (0, 4, 9, 13, 6, 7, 17, 14, 10, 16, 34, 0)
s = 177: (0, 3, 9, 17, 8, 5, 14, 7, 9, 8, 29, 0)
s = 178: (0, 3, 7, 19, 7, 7, 12, 13, 10, 15, 21, 0)
s = 179: (0, 5, 7, 10, 15, 6, 17, 8, 8, 10, 19, 0)
s = 180: (0, 6, 9, 14, 7, 8, 13, 10, 9, 15, 25, 0)
s = 181: (0, 6, 9, 22, 6, 12, 21, 9, 8, 9, 15, 0)
s = 182: (0, 5, 9, 12, 6, 8, 7, 10, 9, 10, 23, 0)
s = 183: (0, 5, 6, 10, 7, 9, 19, 11, 9, 17, 30, 0)
s = 184: (0, 5, 5, 15, 10, 9, 8, 14, 9, 10, 21, 0)
s = 185: (0, 7, 9, 9, 14, 10, 15, 24, 11, 14, 16, 0)
s = 186: (0, 5, 8, 12, 5, 7, 10, 9, 8, 12, 26, 0)
s = 187: (0, 5, 11, 11, 11, 8, 13, 9, 7, 17, 39, 0)
s = 188: (0, 5, 7, 11, 9, 9, 12, 11, 6, 19, 18, 0)
s = 189: (0, 6, 10, 18, 6, 6, 20, 15, 8, 11, 37, 0)
s = 190: (0, 6, 6, 17, 6, 6, 10, 14, 10, 11, 25, 0)
s = 191: (0, 4, 7, 13, 8, 10, 12, 8, 9, 13, 14, 0)
s = 192: (0, 5, 9, 7, 7, 10, 10, 13, 10, 8, 17, 0)
s = 193: (0, 6, 8, 9, 6, 10, 19, 13, 7, 10, 29, 0)
s = 194: (0, 3, 5, 10, 11, 7, 12, 15, 8, 13, 25, 0)
s = 195: (0, 4, 7, 8, 9, 8, 15, 12, 13, 11, 31, 0)
s = 196: (0, 4, 5, 9, 5, 13, 13, 9, 10, 21, 29, 0)
s = 197: (0, 8, 6, 10, 10, 8, 16, 14, 11, 13, 21, 0)
s = 198: (0, 6, 5, 24, 9, 6, 13, 12, 5, 9, 34, 0)
s = 199: (0, 7, 11, 13, 8, 7, 12, 15, 7, 9, 26, 0)
s = 200: (0, 3, 7, 18, 7, 5, 13, 15, 8, 11, 20, 0)
------------------------------------------------------------------------
RESOURCE k = 2
s = 1: (0, 19, 12, 28, 49, 12, 17, 36, 14, 35, 42, 0)
s = 2: (0, 10, 13, 25, 25, 9, 25, 74, 15, 46, 71, 0)
s = 3: (0, 11, 11, 36, 44, 18, 23, 64, 10, 26, 78, 0)
s = 4: (0, 13, 15, 28, 29, 14, 22, 49, 20, 41, 29, 0)
s = 5: (0, 32, 15, 54, 32, 14, 20, 57, 10, 36, 24, 0)
s = 6: (0, 26, 11, 30, 37, 15, 16, 51, 7, 36, 47, 0)
s = 7: (0, 25, 11, 34, 22, 23, 24, 74, 20, 41, 41, 0)
s = 8: (0, 19, 12, 18, 33, 11, 15, 29, 10, 54, 36, 0)
s = 9: (0, 23, 24, 39, 65, 19, 17, 50, 7, 38, 56, 0)
s = 10: (0, 21, 25, 39, 24, 11, 15, 59, 16, 29, 54, 0)
s = 11: (0, 12, 11, 29, 35, 10, 12, 33, 11, 54, 34, 0)
s = 12: (0, 19, 15, 29, 24, 21, 17, 36, 11, 57, 39, 0)
s = 13: (0, 18, 11, 34, 21, 24, 33, 48, 9, 57, 61, 0)
s = 14: (0, 10, 11, 22, 37, 16, 12, 38, 6, 39, 45, 0)
s = 15: (0, 20, 13, 60, 33, 23, 13, 33, 8, 48, 31, 0)
s = 16: (0, 21, 11, 29, 23, 11, 30, 76, 9, 63, 53, 0)
s = 17: (0, 11, 24, 33, 39, 11, 16, 37, 11, 48, 34, 0)
s = 18: (0, 16, 21, 55, 38, 10, 12, 37, 14, 65, 48, 0)
s = 19: (0, 17, 21, 32, 31, 14, 16, 42, 7, 33, 44, 0)
s = 20: (0, 16, 10, 35, 19, 23, 15, 32, 11, 47, 50, 0)
s = 21: (0, 21, 19, 48, 45, 20, 32, 63, 18, 36, 39, 0)
s = 22: (0, 21, 13, 23, 42, 13, 23, 47, 10, 48, 34, 0)
s = 23: (0, 26, 13, 24, 27, 17, 27, 45, 16, 28, 38, 0)
s = 24: (0, 15, 15, 26, 22, 11, 11, 41, 11, 49, 54, 0)
s = 25: (0, 29, 15, 39, 29, 10, 19, 49, 17, 25, 37, 0)
s = 26: (0, 12, 17, 44, 39, 23, 20, 74, 8, 38, 29, 0)
s = 27: (0, 12, 20, 46, 54, 13, 14, 44, 14, 25, 37, 0)
s = 28: (0, 21, 16, 22, 26, 18, 15, 43, 7, 53, 39, 0)
s = 29: (0, 19, 11, 44, 43, 12, 11, 53, 8, 59, 59, 0)
s = 30: (0, 14, 21, 32, 39, 18, 16, 50, 14, 54, 53, 0)
s = 31: (0, 19, 18, 51, 44, 12, 23, 80, 15, 38, 56, 0)
s = 32: (0, 17, 14, 40, 53, 16, 12, 51, 8, 45, 43, 0)
s = 33: (0, 24, 17, 42, 30, 13, 16, 28, 11, 68, 41, 0)
s = 34: (0, 24, 12, 44, 68, 13, 15, 58, 13, 46, 36, 0)
s = 35: (0, 17, 13, 27, 47, 27, 14, 46, 13, 52, 45, 0)
s = 36: (0, 32, 24, 38, 48, 22, 14, 62, 13, 80, 45, 0)
s = 37: (0, 21, 14, 19, 48, 10, 18, 35, 10, 50, 39, 0)
s = 38: (0, 13, 15, 43, 30, 11, 10, 59, 8, 39, 32, 0)
s = 39: (0, 14, 16, 33, 35, 11, 24, 49, 8, 51, 49, 0)
s = 40: (0, 19, 16, 41, 36, 21, 24, 49, 13, 45, 36, 0)
s = 41: (0, 28, 30, 21, 22, 14, 22, 73, 11, 42, 25, 0)
s = 42: (0, 17, 12, 33, 44, 17, 13, 24, 12, 28, 38, 0)
s = 43: (0, 12, 15, 34, 26, 16, 24, 52, 13, 36, 39, 0)
s = 44: (0, 14, 12, 19, 33, 25, 18, 29, 10, 47, 61, 0)
s = 45: (0, 17, 15, 29, 25, 11, 20, 34, 14, 34, 50, 0)
s = 46: (0, 20, 21, 32, 37, 21, 16, 30, 10, 62, 39, 0)
s = 47: (0, 24, 16, 38, 42, 15, 24, 41, 13, 43, 43, 0)
s = 48: (0, 22, 14, 45, 42, 16, 18, 66, 14, 54, 28, 0)
s = 49: (0, 16, 17, 59, 31, 13, 21, 31, 8, 63, 32, 0)
s = 50: (0, 19, 10, 36, 38, 10, 16, 35, 8, 41, 34, 0)
s = 51: (0, 14, 22, 41, 25, 8, 22, 41, 9, 62, 42, 0)
s = 52: (0, 23, 19, 35, 40, 19, 16, 34, 14, 38, 76, 0)
s = 53: (0, 13, 8, 34, 33, 13, 24, 71, 14, 57, 31, 0)
s = 54: (0, 16, 12, 39, 52, 20, 12, 63, 11, 44, 69, 0)
s = 55: (0, 19, 20, 24, 46, 17, 18, 49, 17, 33, 52, 0)
s = 56: (0, 12, 20, 37, 27, 12, 17, 60, 9, 32, 69, 0)
s = 57: (0, 14, 14, 26, 27, 12, 15, 49, 9, 54, 47, 0)
s = 58: (0, 26, 17, 24, 33, 13, 16, 46, 9, 43, 37, 0)
s = 59: (0, 10, 13, 43, 35, 28, 28, 30, 14, 62, 40, 0)
s = 60: (0, 29, 12, 30, 40, 13, 19, 63, 12, 31, 70, 0)
s = 61: (0, 17, 22, 28, 42, 16, 15, 32, 11, 49, 49, 0)
s = 62: (0, 13, 23, 24, 41, 15, 15, 32, 12, 52, 39, 0)
s = 63: (0, 17, 18, 55, 41, 18, 23, 34, 15, 58, 44, 0)
s = 64: (0, 15, 18, 38, 32, 15, 12, 45, 15, 53, 33, 0)
s = 65: (0, 19, 9, 45, 22, 10, 20, 42, 13, 53, 64, 0)
s = 66: (0, 27, 10, 52, 22, 16, 12, 61, 8, 34, 45, 0)
s = 67: (0, 13, 17, 30, 35, 15, 24, 52, 9, 45, 56, 0)
s = 68: (0, 29, 15, 41, 26, 19, 14, 44, 8, 48, 38, 0)
s = 69: (0, 26, 13, 33, 33, 15, 21, 36, 9, 67, 36, 0)
s = 70: (0, 17, 24, 34, 21, 12, 16, 40, 10, 65, 31, 0)
s = 71: (0, 23, 15, 22, 28, 14, 11, 55, 8, 41, 49, 0)
s = 72: (0, 16, 16, 46, 44, 12, 11, 50, 13, 46, 71, 0)
s = 73: (0, 22, 24, 36, 31, 22, 26, 38, 11, 53, 59, 0)
s = 74: (0, 20, 16, 38, 32, 10, 20, 83, 9, 39, 37, 0)
s = 75: (0, 15, 12, 57, 28, 10, 12, 34, 16, 46, 56, 0)
s = 76: (0, 23, 13, 35, 47, 10, 23, 46, 15, 50, 64, 0)
s = 77: (0, 18, 17, 27, 36, 19, 18, 49, 11, 34, 60, 0)
s = 78: (0, 16, 14, 28, 43, 16, 22, 25, 13, 56, 34, 0)
s = 79: (0, 12, 24, 46, 53, 14, 19, 34, 10, 52, 35, 0)
s = 80: (0, 13, 10, 52, 36, 20, 12, 32, 15, 74, 44, 0)
s = 81: (0, 18, 15, 34, 51, 9, 20, 41, 15, 40, 53, 0)
s = 82: (0, 13, 19, 27, 27, 24, 15, 29, 17, 59, 40, 0)
s = 83: (0, 25, 16, 54, 20, 9, 13, 52, 15, 39, 46, 0)
s = 84: (0, 12, 11, 38, 43, 19, 19, 41, 14, 65, 37, 0)
s = 85: (0, 12, 20, 41, 46, 17, 21, 79, 15, 42, 49, 0)
s = 86: (0, 30, 14, 31, 23, 16, 15, 29, 12, 32, 42, 0)
s = 87: (0, 17, 9, 26, 32, 17, 19, 46, 14, 39, 49, 0)
s = 88: (0, 26, 11, 34, 41, 24, 24, 31, 10, 41, 82, 0)
s = 89: (0, 22, 9, 27, 41, 10, 12, 74, 15, 57, 37, 0)
s = 90: (0, 22, 12, 25, 37, 19, 21, 61, 16, 50, 35, 0)
s = 91: (0, 14, 12, 39, 45, 14, 17, 33, 8, 44, 76, 0)
s = 92: (0, 24, 26, 29, 36, 19, 27, 45, 8, 51, 37, 0)
s = 93: (0, 17, 14, 35, 28, 10, 16, 58, 12, 52, 50, 0)
s = 94: (0, 19, 11, 30, 25, 14, 26, 72, 8, 35, 58, 0)
s = 95: (0, 19, 21, 49, 41, 14, 20, 51, 16, 46, 50, 0)
s = 96: (0, 20, 21, 48, 25, 10, 30, 43, 8, 56, 45, 0)
s = 97: (0, 20, 17, 44, 31, 10, 16, 50, 11, 30, 43, 0)
s = 98: (0, 22, 19, 53, 27, 18, 26, 35, 10, 44, 43, 0)
s = 99: (0, 19, 14, 24, 42, 15, 12, 32, 15, 77, 70, 0)
s = 100: (0, 14, 20, 37, 47, 10, 12, 41, 9, 79, 54, 0)
s = 101: (0, 16, 18, 37, 48, 10, 23, 30, 8, 44, 40, 0)
s = 102: (0, 28, 11, 29, 55, 14, 19, 65, 6, 28, 43, 0)
s = 103: (0, 11, 11, 37, 56, 17, 11, 49, 14, 57, 46, 0)
s = 104: (0, 21, 18, 30, 51, 17, 17, 28, 15, 46, 34, 0)
s = 105: (0, 14, 15, 33, 47, 11, 11, 32, 8, 50, 40, 0)
s = 106: (0, 27, 23, 33, 31, 14, 19, 23, 14, 43, 45, 0)
s = 107: (0, 17, 13, 50, 50, 12, 15, 64, 11, 62, 47, 0)
s = 108: (0, 19, 19, 38, 57, 14, 17, 25, 11, 51, 34, 0)
s = 109: (0, 27, 24, 63, 41, 16, 17, 56, 13, 63, 36, 0)
s = 110: (0, 14, 19, 36, 56, 24, 19, 33, 13, 53, 40, 0)
s = 111: (0, 25, 15, 44, 40, 16, 22, 34, 9, 47, 35, 0)
s = 112: (0, 26, 18, 44, 28, 9, 20, 63, 7, 36, 61, 0)
s = 113: (0, 25, 14, 29, 38, 22, 21, 51, 9, 44, 38, 0)
s = 114: (0, 13, 14, 19, 29, 15, 15, 60, 10, 37, 28, 0)
s = 115: (0, 26, 17, 25, 25, 19, 15, 45, 12, 40, 63, 0)
s = 116: (0, 20, 12, 38, 43, 12, 17, 47, 9, 35, 36, 0)
s = 117: (0, 11, 26, 34, 58, 9, 22, 38, 9, 71, 33, 0)
s = 118: (0, 21, 18, 20, 29, 11, 10, 29, 8, 36, 51, 0)
s = 119: (0, 16, 17, 27, 38, 21, 15, 56, 9, 27, 34, 0)
s = 120: (0, 18, 20, 19, 44, 14, 18, 64, 14, 42, 42, 0)
s = 121: (0, 13, 13, 36, 51, 16, 17, 61, 19, 53, 61, 0)
s = 122: (0, 10, 9, 26, 67, 13, 24, 30, 13, 39, 51, 0)
s = 123: (0, 24, 22, 20, 52, 11, 12, 37, 11, 70, 37, 0)
s = 124: (0, 16, 14, 23, 45, 18, 15, 37, 18, 46, 55, 0)
s = 125: (0, 13, 11, 27, 46, 24, 11, 50, 17, 52, 36, 0)
s = 126: (0, 11, 10, 28, 28, 10, 17, 34, 10, 54, 46, 0)
s = 127: (0, 11, 17, 42, 33, 12, 10, 52, 12, 64, 44, 0)
s = 128: (0, 13, 14, 42, 34, 24, 18, 40, 8, 56, 51, 0)
s = 129: (0, 21, 9, 44, 46, 20, 18, 57, 11, 62, 65, 0)
s = 130: (0, 15, 19, 39, 24, 19, 26, 56, 10, 51, 48, 0)
s = 131: (0, 16, 27, 45, 45, 15, 14, 56, 8, 33, 41, 0)
s = 132: (0, 18, 13, 25, 47, 17, 20, 64, 11, 30, 50, 0)
s = 133: (0, 26, 14, 26, 38, 20, 27, 51, 9, 32, 35, 0)
s = 134: (0, 23, 20, 30, 47, 13, 13, 47, 12, 33, 64, 0)
s = 135: (0, 13, 25, 46, 51, 13, 13, 32, 13, 45, 40, 0)
s = 136: (0, 15, 22, 47, 33, 15, 23, 43, 12, 37, 30, 0)
s = 137: (0, 22, 15, 29, 23, 12, 15, 41, 11, 50, 27, 0)
s = 138: (0, 21, 24, 41, 30, 10, 11, 84, 14, 60, 51, 0)
s = 139: (0, 19, 16, 35, 22, 22, 17, 43, 18, 45, 34, 0)
s = 140: (0, 23, 11, 21, 36, 19, 31, 45, 13, 59, 44, 0)
s = 141: (0, 25, 17, 32, 31, 19, 19, 41, 8, 38, 32, 0)
s = 142: (0, 25, 10, 36, 59, 21, 22, 53, 10, 71, 69, 0)
s = 143: (0, 24, 11, 33, 44, 9, 14, 51, 8, 38, 51, 0)
s = 144: (0, 14, 12, 43, 29, 21, 18, 32, 14, 39, 55, 0)
s = 145: (0, 15, 19, 31, 38, 14, 24, 47, 12, 43, 76, 0)
s = 146: (0, 13, 13, 20, 43, 11, 13, 34, 12, 84, 56, 0)
s = 147: (0, 14, 10, 25, 27, 17, 24, 31, 13, 54, 30, 0)
s = 148: (0, 23, 17, 51, 26, 16, 14, 29, 13, 41, 44, 0)
s = 149: (0, 16, 11, 41, 30, 10, 20, 39, 14, 60, 60, 0)
s = 150: (0, 22, 13, 22, 33, 21, 21, 34, 7, 61, 34, 0)
s = 151: (0, 13, 15, 37, 46, 10, 21, 32, 12, 28, 35, 0)
s = 152: (0, 20, 15, 35, 48, 17, 12, 62, 14, 41, 46, 0)
s = 153: (0, 13, 16, 52, 43, 21, 23, 34, 10, 44, 61, 0)
s = 154: (0, 21, 12, 24, 35, 13, 12, 40, 7, 56, 48, 0)
s = 155: (0, 21, 13, 23, 28, 19, 17, 46, 15, 31, 54, 0)
s = 156: (0, 19, 12, 35, 29, 12, 17, 39, 7, 60, 65, 0)
s = 157: (0, 27, 14, 31, 27, 10, 25, 43, 16, 33, 55, 0)
s = 158: (0, 17, 14, 48, 43, 20, 23, 58, 15, 26, 31, 0)
s = 159: (0, 18, 17, 32, 26, 22, 20, 54, 16, 40, 42, 0)
s = 160: (0, 29, 14, 27, 42, 14, 18, 41, 10, 33, 36, 0)
s = 161: (0, 21, 23, 30, 51, 19, 16, 57, 9, 38, 55, 0)
s = 162: (0, 18, 11, 32, 21, 16, 14, 27, 11, 42, 30, 0)
s = 163: (0, 18, 10, 23, 33, 18, 23, 41, 8, 39, 33, 0)
s = 164: (0, 15, 9, 36, 23, 17, 17, 41, 13, 45, 56, 0)
s = 165: (0, 22, 11, 35, 28, 19, 16, 47, 8, 35, 57, 0)
s = 166: (0, 18, 10, 28, 43, 11, 25, 53, 7, 37, 45, 0)
s = 167: (0, 27, 12, 25, 59, 9, 25, 41, 8, 46, 42, 0)
s = 168: (0, 13, 11, 39, 27, 23, 22, 35, 10, 52, 52, 0)
s = 169: (0, 20, 12, 23, 40, 19, 23, 47, 9, 34, 40, 0)
s = 170: (0, 19, 10, 49, 34, 11, 19, 25, 9, 27, 36, 0)
s = 171: (0, 15, 13, 26, 50, 13, 18, 54, 9, 53, 46, 0)
s = 172: (0, 26, 14, 29, 35, 15, 18, 25, 10, 51, 38, 0)
s = 173: (0, 20, 16, 49, 22, 14, 12, 60, 8, 54, 45, 0)
s = 174: (0, 13, 21, 20, 35, 14, 13, 46, 13, 51, 41, 0)
s = 175: (0, 21, 20, 24, 37, 10, 18, 56, 10, 41, 24, 0)
s = 176: (0, 17, 18, 37, 25, 12, 26, 50, 14, 60, 60, 0)
s = 177: (0, 12, 20, 47, 33, 10, 20, 25, 13, 27, 52, 0)
s = 178: (0, 14, 15, 52, 29, 13, 17, 46, 13, 53, 38, 0)
s = 179: (0, 19, 14, 26, 64, 10, 25, 28, 11, 38, 33, 0)
s = 180: (0, 24, 20, 39, 30, 14, 19, 34, 12, 53, 45, 0)
s = 181: (0, 23, 20, 62, 27, 21, 31, 33, 11, 33, 27, 0)
s = 182: (0, 22, 19, 34, 25, 14, 10, 36, 12, 36, 40, 0)
s = 183: (0, 19, 12, 28, 30, 16, 28, 37, 12, 63, 54, 0)
s = 184: (0, 19, 11, 42, 43, 17, 12, 50, 12, 35, 37, 0)
s = 185: (0, 30, 18, 26, 61, 19, 22, 86, 15, 49, 28, 0)
s = 186: (0, 21, 17, 33, 22, 12, 15, 33, 10, 42, 46, 0)
s = 187: (0, 20, 23, 31, 48, 15, 19, 31, 9, 63, 70, 0)
s = 188: (0, 21, 15, 31, 40, 17, 18, 39, 8, 72, 32, 0)
s = 189: (0, 23, 22, 51, 26, 11, 30, 53, 11, 38, 66, 0)
s = 190: (0, 26, 11, 47, 27, 11, 14, 49, 14, 41, 45, 0)
s = 191: (0, 15, 14, 36, 36, 17, 17, 29, 12, 49, 24, 0)
s = 192: (0, 20, 19, 20, 29, 19, 15, 45, 13, 28, 31, 0)
s = 193: (0, 25, 16, 23, 26, 18, 29, 45, 10, 37, 51, 0)
s = 194: (0, 13, 10, 28, 50, 12, 18, 53, 10, 48, 44, 0)
s = 195: (0, 16, 13, 21, 38, 15, 22, 44, 17, 41, 56, 0)
s = 196: (0, 15, 11, 25, 22, 23, 19, 33, 13, 78, 51, 0)
s = 197: (0, 35, 13, 28, 44, 14, 23, 51, 15, 47, 37, 0)
s = 198: (0, 26, 11, 66, 38, 10, 20, 43, 7, 32, 61, 0)
s = 199: (0, 28, 22, 35, 36, 12, 17, 53, 10, 32, 47, 0)
s = 200: (0, 13, 14, 49, 30, 10, 20, 55, 10, 39, 36, 0)
************************************************************************
ES/LS-VALUES:
jobnr.   ES(i)    LS(i)
------------------------------------------------------------------------
  0        0        0
  1        0       46
  2        0       58
  3        0       42
  4        4       46
  5        7       50
  6        4       48
  7        8       52
  8        7       68
  9        4       64
 10       16       60
 11       25       70
************************************************************************
BIG-M-VALUES:
M1 = 33, M2 = 128
************************************************************************
